
Gurobi 9.5.0 (linux64) logging started Tue Nov  7 19:21:49 2023

Set parameter LogFile to value "/lustre1/scratch/348/vsc34888/JointResearch/05.Models/06.Benchmarking/F.Representative_days_based_on_Line_Benefit_NN_OC_fy_1/RTS24_ByStages/openStarNet_RTS24_ByStages.log"
Set parameter Method to value 2
Set parameter MIPFocus to value 1
Set parameter Presolve to value 2
Set parameter RINS to value 100
Set parameter MIPGap to value 0.01
Set parameter Threads to value 36
Set parameter TimeLimit to value 604800
Set parameter IterationLimit to value 760000000
Gurobi Optimizer version 9.5.0 build v9.5.0rc5 (linux64)
Thread count: 36 physical cores, 36 logical processors, using up to 36 threads
Optimize a model with 49398 rows, 28239 columns and 135335 nonzeros
Model fingerprint: 0x34de2774
Variable types: 28200 continuous, 39 integer (39 binary)
Coefficient statistics:
  Matrix range     [3e-03, 1e+03]
  Objective range  [1e+00, 1e+00]
  Bounds range     [4e-04, 3e+00]
  RHS range        [4e-04, 3e+00]
Presolve removed 24090 rows and 12027 columns
Presolve time: 0.29s
Presolved: 25308 rows, 16212 columns, 87990 nonzeros
Variable types: 16173 continuous, 39 integer (39 binary)
Found heuristic solution: objective 161.6656605
Root relaxation presolved: 25308 rows, 16212 columns, 87990 nonzeros

Root barrier log...

Ordering time: 0.01s

Barrier statistics:
 Dense cols : 39
 AA' NZ     : 1.873e+05
 Factor NZ  : 6.274e+05 (roughly 20 MB of memory)
 Factor Ops : 1.976e+07 (less than 1 second per iteration)
 Threads    : 36

                  Objective                Residual
Iter       Primal          Dual         Primal    Dual     Compl     Time
   0   6.43164613e+05 -1.46209655e+08  4.61e+00 2.99e+02  8.35e+03     1s
   1   8.05887397e+04 -4.03041213e+07  4.44e-01 1.23e-08  1.09e+03     1s
   2   2.72725607e+04 -4.56121660e+06  1.51e-02 2.93e-09  9.20e+01     1s
   3   1.84911479e+04 -2.18277365e+05  5.93e-13 1.10e-10  4.62e+00     1s
   4   4.27266083e+03 -3.49992911e+04  6.80e-13 1.24e-11  7.66e-01     1s
   5   1.40436099e+03 -9.75839348e+03  3.36e-13 3.28e-12  2.18e-01     1s
   6   5.65765898e+02 -2.74513925e+03  3.28e-13 1.82e-12  6.45e-02     1s
   7   3.93788590e+02 -1.18895727e+03  2.47e-13 9.09e-13  3.09e-02     1s
   8   2.37917073e+02 -3.40163353e+02  2.32e-13 9.09e-13  1.13e-02     1s
   9   1.72900821e+02 -8.36268323e+01  2.14e-13 1.82e-12  5.00e-03     1s
  10   1.22591815e+02  1.81931971e+01  3.64e-13 9.09e-13  2.04e-03     1s
  11   1.04305188e+02  6.60678899e+01  7.66e-13 1.82e-12  7.45e-04     1s
  12   9.95971347e+01  8.32418159e+01  1.12e-12 1.82e-12  3.19e-04     1s
  13   9.75916910e+01  8.95273422e+01  3.00e-12 9.09e-13  1.57e-04     1s
  14   9.60272030e+01  9.09748432e+01  5.35e-12 9.09e-13  9.85e-05     1s
  15   9.54201555e+01  9.25191439e+01  5.61e-12 9.09e-13  5.66e-05     1s
  16   9.50723287e+01  9.37367467e+01  7.90e-12 1.82e-12  2.60e-05     1s
  17   9.47618301e+01  9.38950640e+01  4.99e-12 9.09e-13  1.69e-05     1s
  18   9.46641102e+01  9.42882934e+01  8.19e-12 1.82e-12  7.33e-06     1s
  19   9.45770367e+01  9.43499424e+01  1.38e-11 9.09e-13  4.43e-06     1s
  20   9.45163312e+01  9.44142864e+01  5.98e-11 9.09e-13  1.99e-06     1s
  21   9.44681420e+01  9.44552642e+01  1.19e-10 1.82e-12  2.51e-07     1s
  22   9.44608369e+01  9.44579515e+01  3.74e-10 9.09e-13  5.63e-08     1s
  23   9.44600721e+01  9.44594056e+01  1.16e-09 1.82e-12  1.30e-08     1s
  24   9.44600033e+01  9.44598178e+01  2.22e-10 1.82e-12  3.62e-09     1s
  25   9.44599985e+01  9.44599938e+01  5.67e-10 1.82e-12  9.12e-11     1s
  26   9.44599979e+01  9.44599979e+01  3.50e-10 1.82e-12  2.82e-13     1s

Barrier solved model in 26 iterations and 1.06 seconds (1.01 work units)
Optimal objective 9.44599979e+01


Root relaxation: objective 9.446000e+01, 2155 iterations, 0.70 seconds (0.49 work units)

    Nodes    |    Current Node    |     Objective Bounds      |     Work
 Expl Unexpl |  Obj  Depth IntInf | Incumbent    BestBd   Gap | It/Node Time

     0     0   94.46000    0   13  161.66566   94.46000  41.6%     -    1s
H    0     0                     128.2247889   94.46000  26.3%     -    1s
     0     0   96.37534    0   12  128.22479   96.37534  24.8%     -    2s
     0     0   96.58520    0   12  128.22479   96.58520  24.7%     -    3s
     0     0   96.63320    0   12  128.22479   96.63320  24.6%     -    3s
     0     0   96.63320    0   12  128.22479   96.63320  24.6%     -    3s
     0     0   97.60771    0   11  128.22479   97.60771  23.9%     -    4s
H    0     0                     110.3875432   97.60771  11.6%     -    4s
     0     0   97.66028    0   10  110.38754   97.66028  11.5%     -    4s
     0     0   97.66067    0   10  110.38754   97.66067  11.5%     -    4s
     0     0   97.73436    0   10  110.38754   97.73436  11.5%     -    5s
     0     0   97.75705    0   10  110.38754   97.75705  11.4%     -    5s
     0     0   97.75879    0   10  110.38754   97.75879  11.4%     -    5s
     0     0   97.75879    0   10  110.38754   97.75879  11.4%     -    5s
     0     0   97.79782    0   11  110.38754   97.79782  11.4%     -    5s
     0     0   97.79932    0   11  110.38754   97.79932  11.4%     -    6s
     0     0   97.79940    0   11  110.38754   97.79940  11.4%     -    6s
     0     0   97.80038    0   11  110.38754   97.80038  11.4%     -    7s
H    0     0                     105.4391048   97.80038  7.24%     -   13s
     0     2   97.80038    0   11  105.43910   97.80038  7.24%     -   14s
     3     6     cutoff    2       105.43910   97.80247  7.24%  2239   15s
   125    14  104.19349   10    7  105.43910  102.31468  2.96%   409   25s

Cutting planes:
  Gomory: 4
  Implied bound: 64
  MIR: 676
  Relax-and-lift: 1

Explored 165 nodes (65723 simplex iterations) in 29.64 seconds (43.49 work units)
Thread count was 36 (of 36 available processors)

Solution count 4: 105.439 110.388 128.225 161.666 

Optimal solution found (tolerance 1.00e-02)
Best objective 1.054391048249e+02, best bound 1.047579756481e+02, gap 0.6460%

Gurobi 9.5.0 (linux64) logging started Tue Nov  7 19:22:27 2023

Set parameter LogFile to value "/lustre1/scratch/348/vsc34888/JointResearch/05.Models/06.Benchmarking/F.Representative_days_based_on_Line_Benefit_NN_OC_fy_1/RTS24_ByStages/openStarNet_RTS24_ByStages.log"
Set parameter Method to value 2
Set parameter MIPFocus to value 1
Set parameter Presolve to value 2
Set parameter RINS to value 100
Set parameter MIPGap to value 0.01
Set parameter Threads to value 36
Set parameter TimeLimit to value 604800
Set parameter IterationLimit to value 760000000
No parameters matching 'relax_integrality' found
Gurobi Optimizer version 9.5.0 build v9.5.0rc5 (linux64)
Thread count: 36 physical cores, 36 logical processors, using up to 36 threads
Optimize a model with 49398 rows, 28200 columns and 117980 nonzeros
Model fingerprint: 0xf61e08e4
Coefficient statistics:
  Matrix range     [3e-03, 1e+03]
  Objective range  [1e+00, 1e+00]
  Bounds range     [4e-04, 3e+00]
  RHS range        [4e-04, 3e+01]
Presolve removed 39080 rows and 13147 columns
Presolve time: 0.05s
Presolved: 10318 rows, 15275 columns, 37909 nonzeros

Ordering time: 0.00s

Barrier statistics:
 AA' NZ     : 2.668e+04
 Factor NZ  : 1.133e+05 (roughly 10 MB of memory)
 Factor Ops : 1.723e+06 (less than 1 second per iteration)
 Threads    : 36

                  Objective                Residual
Iter       Primal          Dual         Primal    Dual     Compl     Time
   0   1.01347859e+06 -1.42363011e+08  1.72e+01 1.15e+02  1.31e+04     0s
   1   1.19394282e+05 -2.52616122e+07  1.57e+00 3.01e-12  1.41e+03     0s
   2   3.03427394e+04 -3.31341438e+06  5.83e-02 2.34e-12  1.34e+02     0s
   3   2.00828877e+04 -6.32334029e+05  5.52e-04 1.18e-12  2.49e+01     0s
   4   9.68337838e+03 -7.64068638e+04  2.14e-07 8.84e-13  3.28e+00     0s
   5   3.48601984e+03 -1.97414614e+04  4.22e-08 9.09e-13  8.86e-01     0s
   6   1.30235547e+03 -5.77225514e+03  1.35e-08 4.55e-13  2.70e-01     0s
   7   5.35150627e+02 -1.50515720e+03  4.03e-09 4.55e-13  7.78e-02     0s
   8   2.71711647e+02 -4.40280876e+02  1.33e-09 4.55e-13  2.72e-02     0s
   9   1.73706229e+02 -8.64690671e+01  4.59e-10 2.27e-13  9.92e-03     0s
  10   1.25859371e+02  6.63922963e+01  1.07e-10 4.55e-13  2.27e-03     0s
  11   1.10383393e+02  8.88600155e+01  2.07e-11 4.55e-13  8.21e-04     0s
  12   1.07649056e+02  1.00088955e+02  8.90e-12 4.55e-13  2.88e-04     0s
  13   1.05995074e+02  1.03741826e+02  5.76e-12 9.09e-13  8.60e-05     0s
  14   1.05670168e+02  1.05020715e+02  8.96e-12 4.55e-13  2.48e-05     0s
  15   1.05461546e+02  1.05350201e+02  2.72e-11 4.55e-13  4.25e-06     0s
  16   1.05439794e+02  1.05422843e+02  6.12e-11 4.55e-13  6.47e-07     0s
  17   1.05439348e+02  1.05437447e+02  7.66e-11 9.09e-13  7.25e-08     0s
  18   1.05439105e+02  1.05439103e+02  2.98e-11 6.82e-13  8.76e-11     0s
  19   1.05439105e+02  1.05439105e+02  1.47e-11 4.55e-13  8.76e-14     0s

Barrier solved model in 19 iterations and 0.20 seconds (0.15 work units)
Optimal objective 1.05439105e+02

Crossover log...

    1265 DPushes remaining with DInf 0.0000000e+00                 0s
       0 DPushes remaining with DInf 0.0000000e+00                 0s

     578 PPushes remaining with PInf 0.0000000e+00                 0s
       0 PPushes remaining with PInf 0.0000000e+00                 0s

  Push phase complete: Pinf 0.0000000e+00, Dinf 4.2461645e-13      0s

Iteration    Objective       Primal Inf.    Dual Inf.      Time
     609    1.0543910e+02   0.000000e+00   0.000000e+00      0s

Use crossover to convert LP symmetric solution to basic solution...
Crossover log...

       0 DPushes remaining with DInf 0.0000000e+00                 0s

     338 PPushes remaining with PInf 0.0000000e+00                 0s
       0 PPushes remaining with PInf 0.0000000e+00                 0s

  Push phase complete: Pinf 0.0000000e+00, Dinf 4.4911274e-13      0s

Iteration    Objective       Primal Inf.    Dual Inf.      Time
     969    1.0543910e+02   0.000000e+00   0.000000e+00      0s

Solved in 969 iterations and 0.31 seconds (0.21 work units)
Optimal objective  1.054391048e+02
